(set-logic QF_S)
(declare-fun var_0xINPUT_25401 () String)
(assert (and (= (len var_0xINPUT_25401) 0) (= (len var_0xINPUT_25401) 0) (not (= var_0xINPUT_25401 "Example:")) (= (len var_0xINPUT_25401) 0) (not (= var_0xINPUT_25401 "4PH2ujcENG"))))
(check-sat var_0xINPUT_25401)